NAME : mEgtspf.pid20747.gtsp.161061383.tour
COMMENT : Length = 161061383
COMMENT : Found by LKH [Keld Helsgaun] Thu Mar 20 01:26:48 2025
TYPE : TOUR
DIMENSION : 90
TOUR_SECTION
1
65
66
63
64
23
24
25
26
5
8
81
82
79
80
12
13
14
11
4
28
29
30
27
10
3
37
38
35
36
42
39
40
41
9
34
31
32
33
61
62
59
60
44
45
46
43
2
15
16
17
18
75
76
77
78
87
88
89
90
22
19
20
21
74
71
72
73
6
86
83
84
85
47
48
49
50
54
51
52
53
7
70
67
68
69
57
58
55
56
-1
EOF
